Square/square_9.lp
Minimize
x32 + x33 + x34 + x35 + x36 + x37 + x38 + x39 + x40 + x41 + x42 + x43 + x44 + x45 + x46 + x47 + x48 + x49 + x50 + x51 + x52 + x53 + x54 + x55 + x56 + x57 + x58 + x59 + x60 + x61 + x62 + x63 + x64 + x65 + x66 + x67 + x68 + x69 + x70 + x71 + x72 + x73 + x74 + x75 + x76 + x77 + x78 + x79 + x80 + x81 + x82 + x83 + x84 + x85 + x86 + x87 + x88 + x89 + x90 + x91 + x92 + x93 + x94 + x95 + x96 + x97 + x98 + x99 + x100 + x101 + x102 + x103 + x104 + x105 + x106 + x107 + x108 + x109 + x110 + x111 + x112 + x113 + x114 + x115 + x116 + x117 + x118 + x119 + x120 + x121 + x122 + x123 + x124 + x125 + x126 + x127 + x128 + x129 + x130 + x131 + x132 + x133 + x134 + x135 + x136 + x137 + x138 + x139 + x140 + x141 + x142 + x143 + x144 + x145 + x146 + x147 + x148 + x149 + x150 + x151 + x152 + x153 + x154 + x155 + x156 + x157 + x158 + x159 + x160 + x161 + x162 + x163 + x164 + x165 + x166 + x167 + x168 + x169 + x170 + x171 + x172 + x173 + x174 + x175 + 
Subject To
\\GaloisMulti^{-1}
x0 + x1 + x2 + x3 + x16 + x17 + x18 + x19 - 5 d0 >= 0
d0 - x0 >= 0
d0 - x1 >= 0
d0 - x2 >= 0
d0 - x3 >= 0
d0 - x16 >= 0
d0 - x17 >= 0
d0 - x18 >= 0
d0 - x19 >= 0
\\GaloisMulti^{-1}
x4 + x5 + x6 + x7 + x20 + x21 + x22 + x23 - 5 d1 >= 0
d1 - x4 >= 0
d1 - x5 >= 0
d1 - x6 >= 0
d1 - x7 >= 0
d1 - x20 >= 0
d1 - x21 >= 0
d1 - x22 >= 0
d1 - x23 >= 0
\\GaloisMulti^{-1}
x8 + x9 + x10 + x11 + x24 + x25 + x26 + x27 - 5 d2 >= 0
d2 - x8 >= 0
d2 - x9 >= 0
d2 - x10 >= 0
d2 - x11 >= 0
d2 - x24 >= 0
d2 - x25 >= 0
d2 - x26 >= 0
d2 - x27 >= 0
\\GaloisMulti^{-1}
x12 + x13 + x14 + x15 + x28 + x29 + x30 + x31 - 5 d3 >= 0
d3 - x12 >= 0
d3 - x13 >= 0
d3 - x14 >= 0
d3 - x15 >= 0
d3 - x28 >= 0
d3 - x29 >= 0
d3 - x30 >= 0
d3 - x31 >= 0
\\GaloisMulti
x16 + x17 + x18 + x19 + x32 + x33 + x34 + x35 - 5 d4 >= 0
d4 - x16 >= 0
d4 - x17 >= 0
d4 - x18 >= 0
d4 - x19 >= 0
d4 - x32 >= 0
d4 - x33 >= 0
d4 - x34 >= 0
d4 - x35 >= 0
\\GaloisMulti
x20 + x21 + x22 + x23 + x36 + x37 + x38 + x39 - 5 d5 >= 0
d5 - x20 >= 0
d5 - x21 >= 0
d5 - x22 >= 0
d5 - x23 >= 0
d5 - x36 >= 0
d5 - x37 >= 0
d5 - x38 >= 0
d5 - x39 >= 0
\\GaloisMulti
x24 + x25 + x26 + x27 + x40 + x41 + x42 + x43 - 5 d6 >= 0
d6 - x24 >= 0
d6 - x25 >= 0
d6 - x26 >= 0
d6 - x27 >= 0
d6 - x40 >= 0
d6 - x41 >= 0
d6 - x42 >= 0
d6 - x43 >= 0
\\GaloisMulti
x28 + x29 + x30 + x31 + x44 + x45 + x46 + x47 - 5 d7 >= 0
d7 - x28 >= 0
d7 - x29 >= 0
d7 - x30 >= 0
d7 - x31 >= 0
d7 - x44 >= 0
d7 - x45 >= 0
d7 - x46 >= 0
d7 - x47 >= 0
\\SBOX
\\SBOX
\\SBOX
\\SBOX
\\SBOX
\\SBOX
\\SBOX
\\SBOX
\\SBOX
\\SBOX
\\SBOX
\\SBOX
\\SBOX
\\SBOX
\\SBOX
\\SBOX
\\Identity
\\Identity
\\Identity
\\Identity
\\Identity
\\Identity
\\Identity
\\Identity
\\Identity
\\Identity
\\Identity
\\Identity
\\Identity
\\Identity
\\Identity
\\Identity
\\GaloisMulti
x32 + x36 + x40 + x44 + x48 + x49 + x50 + x51 - 5 d8 >= 0
d8 - x32 >= 0
d8 - x36 >= 0
d8 - x40 >= 0
d8 - x44 >= 0
d8 - x48 >= 0
d8 - x49 >= 0
d8 - x50 >= 0
d8 - x51 >= 0
\\GaloisMulti
x37 + x41 + x45 + x33 + x52 + x53 + x54 + x55 - 5 d9 >= 0
d9 - x37 >= 0
d9 - x41 >= 0
d9 - x45 >= 0
d9 - x33 >= 0
d9 - x52 >= 0
d9 - x53 >= 0
d9 - x54 >= 0
d9 - x55 >= 0
\\GaloisMulti
x42 + x46 + x34 + x38 + x56 + x57 + x58 + x59 - 5 d10 >= 0
d10 - x42 >= 0
d10 - x46 >= 0
d10 - x34 >= 0
d10 - x38 >= 0
d10 - x56 >= 0
d10 - x57 >= 0
d10 - x58 >= 0
d10 - x59 >= 0
\\GaloisMulti
x47 + x35 + x39 + x43 + x60 + x61 + x62 + x63 - 5 d11 >= 0
d11 - x47 >= 0
d11 - x35 >= 0
d11 - x39 >= 0
d11 - x43 >= 0
d11 - x60 >= 0
d11 - x61 >= 0
d11 - x62 >= 0
d11 - x63 >= 0
\\SBOX
\\SBOX
\\SBOX
\\SBOX
\\SBOX
\\SBOX
\\SBOX
\\SBOX
\\SBOX
\\SBOX
\\SBOX
\\SBOX
\\SBOX
\\SBOX
\\SBOX
\\SBOX
\\Identity
\\Identity
\\Identity
\\Identity
\\Identity
\\Identity
\\Identity
\\Identity
\\Identity
\\Identity
\\Identity
\\Identity
\\Identity
\\Identity
\\Identity
\\Identity
\\GaloisMulti
x48 + x52 + x56 + x60 + x64 + x65 + x66 + x67 - 5 d12 >= 0
d12 - x48 >= 0
d12 - x52 >= 0
d12 - x56 >= 0
d12 - x60 >= 0
d12 - x64 >= 0
d12 - x65 >= 0
d12 - x66 >= 0
d12 - x67 >= 0
\\GaloisMulti
x53 + x57 + x61 + x49 + x68 + x69 + x70 + x71 - 5 d13 >= 0
d13 - x53 >= 0
d13 - x57 >= 0
d13 - x61 >= 0
d13 - x49 >= 0
d13 - x68 >= 0
d13 - x69 >= 0
d13 - x70 >= 0
d13 - x71 >= 0
\\GaloisMulti
x58 + x62 + x50 + x54 + x72 + x73 + x74 + x75 - 5 d14 >= 0
d14 - x58 >= 0
d14 - x62 >= 0
d14 - x50 >= 0
d14 - x54 >= 0
d14 - x72 >= 0
d14 - x73 >= 0
d14 - x74 >= 0
d14 - x75 >= 0
\\GaloisMulti
x63 + x51 + x55 + x59 + x76 + x77 + x78 + x79 - 5 d15 >= 0
d15 - x63 >= 0
d15 - x51 >= 0
d15 - x55 >= 0
d15 - x59 >= 0
d15 - x76 >= 0
d15 - x77 >= 0
d15 - x78 >= 0
d15 - x79 >= 0
\\SBOX
\\SBOX
\\SBOX
\\SBOX
\\SBOX
\\SBOX
\\SBOX
\\SBOX
\\SBOX
\\SBOX
\\SBOX
\\SBOX
\\SBOX
\\SBOX
\\SBOX
\\SBOX
\\Identity
\\Identity
\\Identity
\\Identity
\\Identity
\\Identity
\\Identity
\\Identity
\\Identity
\\Identity
\\Identity
\\Identity
\\Identity
\\Identity
\\Identity
\\Identity
\\GaloisMulti
x64 + x68 + x72 + x76 + x80 + x81 + x82 + x83 - 5 d16 >= 0
d16 - x64 >= 0
d16 - x68 >= 0
d16 - x72 >= 0
d16 - x76 >= 0
d16 - x80 >= 0
d16 - x81 >= 0
d16 - x82 >= 0
d16 - x83 >= 0
\\GaloisMulti
x69 + x73 + x77 + x65 + x84 + x85 + x86 + x87 - 5 d17 >= 0
d17 - x69 >= 0
d17 - x73 >= 0
d17 - x77 >= 0
d17 - x65 >= 0
d17 - x84 >= 0
d17 - x85 >= 0
d17 - x86 >= 0
d17 - x87 >= 0
\\GaloisMulti
x74 + x78 + x66 + x70 + x88 + x89 + x90 + x91 - 5 d18 >= 0
d18 - x74 >= 0
d18 - x78 >= 0
d18 - x66 >= 0
d18 - x70 >= 0
d18 - x88 >= 0
d18 - x89 >= 0
d18 - x90 >= 0
d18 - x91 >= 0
\\GaloisMulti
x79 + x67 + x71 + x75 + x92 + x93 + x94 + x95 - 5 d19 >= 0
d19 - x79 >= 0
d19 - x67 >= 0
d19 - x71 >= 0
d19 - x75 >= 0
d19 - x92 >= 0
d19 - x93 >= 0
d19 - x94 >= 0
d19 - x95 >= 0
\\SBOX
\\SBOX
\\SBOX
\\SBOX
\\SBOX
\\SBOX
\\SBOX
\\SBOX
\\SBOX
\\SBOX
\\SBOX
\\SBOX
\\SBOX
\\SBOX
\\SBOX
\\SBOX
\\Identity
\\Identity
\\Identity
\\Identity
\\Identity
\\Identity
\\Identity
\\Identity
\\Identity
\\Identity
\\Identity
\\Identity
\\Identity
\\Identity
\\Identity
\\Identity
\\GaloisMulti
x80 + x84 + x88 + x92 + x96 + x97 + x98 + x99 - 5 d20 >= 0
d20 - x80 >= 0
d20 - x84 >= 0
d20 - x88 >= 0
d20 - x92 >= 0
d20 - x96 >= 0
d20 - x97 >= 0
d20 - x98 >= 0
d20 - x99 >= 0
\\GaloisMulti
x85 + x89 + x93 + x81 + x100 + x101 + x102 + x103 - 5 d21 >= 0
d21 - x85 >= 0
d21 - x89 >= 0
d21 - x93 >= 0
d21 - x81 >= 0
d21 - x100 >= 0
d21 - x101 >= 0
d21 - x102 >= 0
d21 - x103 >= 0
\\GaloisMulti
x90 + x94 + x82 + x86 + x104 + x105 + x106 + x107 - 5 d22 >= 0
d22 - x90 >= 0
d22 - x94 >= 0
d22 - x82 >= 0
d22 - x86 >= 0
d22 - x104 >= 0
d22 - x105 >= 0
d22 - x106 >= 0
d22 - x107 >= 0
\\GaloisMulti
x95 + x83 + x87 + x91 + x108 + x109 + x110 + x111 - 5 d23 >= 0
d23 - x95 >= 0
d23 - x83 >= 0
d23 - x87 >= 0
d23 - x91 >= 0
d23 - x108 >= 0
d23 - x109 >= 0
d23 - x110 >= 0
d23 - x111 >= 0
\\SBOX
\\SBOX
\\SBOX
\\SBOX
\\SBOX
\\SBOX
\\SBOX
\\SBOX
\\SBOX
\\SBOX
\\SBOX
\\SBOX
\\SBOX
\\SBOX
\\SBOX
\\SBOX
\\Identity
\\Identity
\\Identity
\\Identity
\\Identity
\\Identity
\\Identity
\\Identity
\\Identity
\\Identity
\\Identity
\\Identity
\\Identity
\\Identity
\\Identity
\\Identity
\\GaloisMulti
x96 + x100 + x104 + x108 + x112 + x113 + x114 + x115 - 5 d24 >= 0
d24 - x96 >= 0
d24 - x100 >= 0
d24 - x104 >= 0
d24 - x108 >= 0
d24 - x112 >= 0
d24 - x113 >= 0
d24 - x114 >= 0
d24 - x115 >= 0
\\GaloisMulti
x101 + x105 + x109 + x97 + x116 + x117 + x118 + x119 - 5 d25 >= 0
d25 - x101 >= 0
d25 - x105 >= 0
d25 - x109 >= 0
d25 - x97 >= 0
d25 - x116 >= 0
d25 - x117 >= 0
d25 - x118 >= 0
d25 - x119 >= 0
\\GaloisMulti
x106 + x110 + x98 + x102 + x120 + x121 + x122 + x123 - 5 d26 >= 0
d26 - x106 >= 0
d26 - x110 >= 0
d26 - x98 >= 0
d26 - x102 >= 0
d26 - x120 >= 0
d26 - x121 >= 0
d26 - x122 >= 0
d26 - x123 >= 0
\\GaloisMulti
x111 + x99 + x103 + x107 + x124 + x125 + x126 + x127 - 5 d27 >= 0
d27 - x111 >= 0
d27 - x99 >= 0
d27 - x103 >= 0
d27 - x107 >= 0
d27 - x124 >= 0
d27 - x125 >= 0
d27 - x126 >= 0
d27 - x127 >= 0
\\SBOX
\\SBOX
\\SBOX
\\SBOX
\\SBOX
\\SBOX
\\SBOX
\\SBOX
\\SBOX
\\SBOX
\\SBOX
\\SBOX
\\SBOX
\\SBOX
\\SBOX
\\SBOX
\\Identity
\\Identity
\\Identity
\\Identity
\\Identity
\\Identity
\\Identity
\\Identity
\\Identity
\\Identity
\\Identity
\\Identity
\\Identity
\\Identity
\\Identity
\\Identity
\\GaloisMulti
x112 + x116 + x120 + x124 + x128 + x129 + x130 + x131 - 5 d28 >= 0
d28 - x112 >= 0
d28 - x116 >= 0
d28 - x120 >= 0
d28 - x124 >= 0
d28 - x128 >= 0
d28 - x129 >= 0
d28 - x130 >= 0
d28 - x131 >= 0
\\GaloisMulti
x117 + x121 + x125 + x113 + x132 + x133 + x134 + x135 - 5 d29 >= 0
d29 - x117 >= 0
d29 - x121 >= 0
d29 - x125 >= 0
d29 - x113 >= 0
d29 - x132 >= 0
d29 - x133 >= 0
d29 - x134 >= 0
d29 - x135 >= 0
\\GaloisMulti
x122 + x126 + x114 + x118 + x136 + x137 + x138 + x139 - 5 d30 >= 0
d30 - x122 >= 0
d30 - x126 >= 0
d30 - x114 >= 0
d30 - x118 >= 0
d30 - x136 >= 0
d30 - x137 >= 0
d30 - x138 >= 0
d30 - x139 >= 0
\\GaloisMulti
x127 + x115 + x119 + x123 + x140 + x141 + x142 + x143 - 5 d31 >= 0
d31 - x127 >= 0
d31 - x115 >= 0
d31 - x119 >= 0
d31 - x123 >= 0
d31 - x140 >= 0
d31 - x141 >= 0
d31 - x142 >= 0
d31 - x143 >= 0
\\SBOX
\\SBOX
\\SBOX
\\SBOX
\\SBOX
\\SBOX
\\SBOX
\\SBOX
\\SBOX
\\SBOX
\\SBOX
\\SBOX
\\SBOX
\\SBOX
\\SBOX
\\SBOX
\\Identity
\\Identity
\\Identity
\\Identity
\\Identity
\\Identity
\\Identity
\\Identity
\\Identity
\\Identity
\\Identity
\\Identity
\\Identity
\\Identity
\\Identity
\\Identity
\\GaloisMulti
x128 + x132 + x136 + x140 + x144 + x145 + x146 + x147 - 5 d32 >= 0
d32 - x128 >= 0
d32 - x132 >= 0
d32 - x136 >= 0
d32 - x140 >= 0
d32 - x144 >= 0
d32 - x145 >= 0
d32 - x146 >= 0
d32 - x147 >= 0
\\GaloisMulti
x133 + x137 + x141 + x129 + x148 + x149 + x150 + x151 - 5 d33 >= 0
d33 - x133 >= 0
d33 - x137 >= 0
d33 - x141 >= 0
d33 - x129 >= 0
d33 - x148 >= 0
d33 - x149 >= 0
d33 - x150 >= 0
d33 - x151 >= 0
\\GaloisMulti
x138 + x142 + x130 + x134 + x152 + x153 + x154 + x155 - 5 d34 >= 0
d34 - x138 >= 0
d34 - x142 >= 0
d34 - x130 >= 0
d34 - x134 >= 0
d34 - x152 >= 0
d34 - x153 >= 0
d34 - x154 >= 0
d34 - x155 >= 0
\\GaloisMulti
x143 + x131 + x135 + x139 + x156 + x157 + x158 + x159 - 5 d35 >= 0
d35 - x143 >= 0
d35 - x131 >= 0
d35 - x135 >= 0
d35 - x139 >= 0
d35 - x156 >= 0
d35 - x157 >= 0
d35 - x158 >= 0
d35 - x159 >= 0
\\SBOX
\\SBOX
\\SBOX
\\SBOX
\\SBOX
\\SBOX
\\SBOX
\\SBOX
\\SBOX
\\SBOX
\\SBOX
\\SBOX
\\SBOX
\\SBOX
\\SBOX
\\SBOX
\\Identity
\\Identity
\\Identity
\\Identity
\\Identity
\\Identity
\\Identity
\\Identity
\\Identity
\\Identity
\\Identity
\\Identity
\\Identity
\\Identity
\\Identity
\\Identity
\\GaloisMulti
x144 + x148 + x152 + x156 + x160 + x161 + x162 + x163 - 5 d36 >= 0
d36 - x144 >= 0
d36 - x148 >= 0
d36 - x152 >= 0
d36 - x156 >= 0
d36 - x160 >= 0
d36 - x161 >= 0
d36 - x162 >= 0
d36 - x163 >= 0
\\GaloisMulti
x149 + x153 + x157 + x145 + x164 + x165 + x166 + x167 - 5 d37 >= 0
d37 - x149 >= 0
d37 - x153 >= 0
d37 - x157 >= 0
d37 - x145 >= 0
d37 - x164 >= 0
d37 - x165 >= 0
d37 - x166 >= 0
d37 - x167 >= 0
\\GaloisMulti
x154 + x158 + x146 + x150 + x168 + x169 + x170 + x171 - 5 d38 >= 0
d38 - x154 >= 0
d38 - x158 >= 0
d38 - x146 >= 0
d38 - x150 >= 0
d38 - x168 >= 0
d38 - x169 >= 0
d38 - x170 >= 0
d38 - x171 >= 0
\\GaloisMulti
x159 + x147 + x151 + x155 + x172 + x173 + x174 + x175 - 5 d39 >= 0
d39 - x159 >= 0
d39 - x147 >= 0
d39 - x151 >= 0
d39 - x155 >= 0
d39 - x172 >= 0
d39 - x173 >= 0
d39 - x174 >= 0
d39 - x175 >= 0
\\SBOX
\\SBOX
\\SBOX
\\SBOX
\\SBOX
\\SBOX
\\SBOX
\\SBOX
\\SBOX
\\SBOX
\\SBOX
\\SBOX
\\SBOX
\\SBOX
\\SBOX
\\SBOX
\\Identity
\\Identity
\\Identity
\\Identity
\\Identity
\\Identity
\\Identity
\\Identity
\\Identity
\\Identity
\\Identity
\\Identity
\\Identity
\\Identity
\\Identity
\\Identity
x0 + x1 + x2 + x3 + x4 + x5 + x6 + x7 + x8 + x9 + x10 + x11 + x12 + x13 + x14 + x15 >= 1

Binary
d0
d1
d2
d3
d4
d5
d6
d7
d8
d9
d10
d11
d12
d13
d14
d15
d16
d17
d18
d19
d20
d21
d22
d23
d24
d25
d26
d27
d28
d29
d30
d31
d32
d33
d34
d35
d36
d37
d38
d39
x0
x1
x2
x3
x4
x5
x6
x7
x8
x9
x10
x11
x12
x13
x14
x15
x16
x17
x18
x19
x20
x21
x22
x23
x24
x25
x26
x27
x28
x29
x30
x31
x32
x33
x34
x35
x36
x37
x38
x39
x40
x41
x42
x43
x44
x45
x46
x47
x48
x49
x50
x51
x52
x53
x54
x55
x56
x57
x58
x59
x60
x61
x62
x63
x64
x65
x66
x67
x68
x69
x70
x71
x72
x73
x74
x75
x76
x77
x78
x79
x80
x81
x82
x83
x84
x85
x86
x87
x88
x89
x90
x91
x92
x93
x94
x95
x96
x97
x98
x99
x100
x101
x102
x103
x104
x105
x106
x107
x108
x109
x110
x111
x112
x113
x114
x115
x116
x117
x118
x119
x120
x121
x122
x123
x124
x125
x126
x127
x128
x129
x130
x131
x132
x133
x134
x135
x136
x137
x138
x139
x140
x141
x142
x143
x144
x145
x146
x147
x148
x149
x150
x151
x152
x153
x154
x155
x156
x157
x158
x159
x160
x161
x162
x163
x164
x165
x166
x167
x168
x169
x170
x171
x172
x173
x174
x175
End